5 5
4 4 4 15 5 18 1 13 3 2 2 2 12 4 5 1 3 17 1 4 13
7 5 4 16 5 9 2 19 3 12 1 18 5 2 13 5 19 1 13 4 5 3 17 1 2 11 2 2 20 5 11 3 4 5 2 4 5 19 4 1 2 4 13 3 12 5 9 5 5 7 3 2 4 16 2 10 1 8
5 5 4 14 2 12 5 6 1 5 3 10 2 2 4 5 16 3 4 5 5 8 1 15 3 5 20 1 4 3 16 2 1 2 5 11
7 4 4 8 3 4 5 11 1 12 4 1 20 2 17 3 3 5 4 3 3 15 4 15 5 19 5 1 16 5 12 3 5 2 13 4 16 4 5 20 1 14 3 7 2 11 3 2 16 4 4 3 5 5 1 3 3 2 2 7 4 13 5 8
6 3 4 13 1 7 3 16 4 2 6 1 4 5 6 4 15 5 3 3 5 18 4 5 2 17 1 7 1 3 14 5 5 17 1 9 3 16 2 10 4 14 3 2 12 4 7 5 3